2 15
726 596 
0 60 50 78 68 82 97 2
1 82 72 59 49 90 17 1
2 32 22 67 57 40 5 1
3 47 37 63 53 60 51 2
4 58 48 29 19 3 46 2
5 36 26 45 35 18 34 2
6 103 93 50 40 17 55 1
7 100 90 77 67 59 83 2
8 72 62 15 5 98 14 2
9 22 12 98 88 38 84 1
10 102 92 56 46 47 49 2
11 109 99 110 100 93 75 1
12 41 31 68 58 43 17 1
13 110 100 58 48 47 25 2
14 84 74 22 12 69 100 1
